; benchmark generated from python API
(set-info :status unknown)
(declare-fun A_0 () Real)
(declare-fun L_0 () Real)
(declare-fun S_0 () Real)
(declare-fun C () Real)
(declare-fun B () Real)
(declare-fun S_4 () Real)
(declare-fun S_1 () Real)
(declare-fun A_2 () Real)
(declare-fun A_3 () Real)
(declare-fun L_3 () Real)
(declare-fun L_1 () Real)
(declare-fun A_4 () Real)
(declare-fun L_4 () Real)
(declare-fun A_1 () Real)
(declare-fun S_3 () Real)
(declare-fun S_2 () Real)
(declare-fun L_2 () Real)
(assert
 (let (($x34 (>= L_0 0.0)))
 (let (($x2404 (>= C 5.0)))
 (let (($x2109 (>= B 5.0)))
 (let (($x2514 (not (= L_1 L_3))))
 (let (($x655 (not (= L_3 L_4))))
 (let (($x16757 (or (not (<= L_3 L_1)) $x655 (<= (+ A_4 (* (- 1.0) A_2) (* (- 2.0) C)) B))))
 (let ((?x458 (* (- 1.0) L_1)))
 (let ((?x13964 (+ A_2 ?x458 C)))
 (let (($x14299 (>= S_4 ?x13964)))
 (let ((?x1905 (* (- 1.0) L_3)))
 (let ((?x2058 (+ A_3 ?x1905)))
 (let (($x725 (>= S_4 ?x2058)))
 (let (($x14141 (or $x725 $x14299 (<= (+ S_1 (* 2.0 C) (* (- 1.0) S_4)) 0.0))))
 (let (($x15300 (<= (+ (* 2.0 C) A_1 (* (- 1.0) L_0) (* (- 1.0) S_4)) 0.0)))
 (let (($x29762 (or $x725 $x14299 $x15300 (<= (+ S_0 (* 3.0 C) (* (- 1.0) S_4)) 0.0))))
 (let ((?x1157 (* (- 1.0) C)))
 (let ((?x1185 (* (- 1.0) L_4)))
 (let ((?x2715 (* (- 1.0) B)))
 (let ((?x14739 (+ ?x2715 ?x1185 A_4 ?x1157)))
 (let (($x15016 (<= (+ A_3 (* (- 1.0) L_0)) ?x14739)))
 (let (($x15007 (<= 0.0 (+ C S_0 L_0 (* (- 1.0) A_1)))))
 (let (($x15011 (not $x15007)))
 (let (($x14071 (<= (+ A_2 (* (- 1.0) A_1) ?x1157) 0.0)))
 (let (($x14663 (not $x14071)))
 (let ((?x1975 (* (- 1.0) A_2)))
 (let ((?x14195 (+ A_3 ?x1975 ?x1157)))
 (let (($x14196 (<= ?x14195 0.0)))
 (let (($x14263 (not $x14196)))
 (let (($x5369 (= L_4 L_0)))
 (let ((?x673 (* (- 3.0) C)))
 (let ((?x14788 (+ ?x2715 ?x1185 A_4 ?x673)))
 (let ((?x2615 (* (- 1.0) L_0)))
 (let ((?x1249 (+ A_1 ?x2615)))
 (let (($x15012 (<= ?x1249 ?x14788)))
 (let (($x1974 (= L_4 L_3)))
 (let (($x29149 (or $x1974 $x14196 (not (<= 0.0 (+ ?x1157 A_2 (* (- 1.0) A_1)))) $x15011 $x15012)))
 (let ((?x2692 (* (- 2.0) C)))
 (let ((?x14730 (+ ?x2715 ?x1185 A_4 ?x2692)))
 (let ((?x499 (+ A_2 ?x2615)))
 (let (($x14731 (<= ?x499 ?x14730)))
 (let (($x14241 (<= (+ A_1 ?x2615 L_2 ?x1975 C) 0.0)))
 (let (($x2168 (not (<= L_1 L_0))))
 (let (($x371 (not (<= L_2 L_1))))
 (let (($x16739 (or $x371 $x1974 $x2168 $x14731 (<= S_0 (+ ?x2715 ?x1185 A_4 (* (- 4.0) C))) $x15007 $x15016)))
 (let ((?x852 (+ A_2 ?x458)))
 (let (($x1706 (>= S_3 ?x852)))
 (let (($x15852 (or $x1706 (<= (+ C ?x2615 A_1 (* (- 1.0) S_3)) 0.0) (<= (+ (* 2.0 C) S_0 (* (- 1.0) S_3)) 0.0))))
 (let (($x4983 (not (= L_0 L_3))))
 (let (($x29445 (or $x4983 $x5369 $x14071 $x15011 $x15016 (not (<= (+ A_3 (* (- 1.0) A_1) ?x2692) 0.0)))))
 (let (($x14332 (<= (+ A_3 (* (- 1.0) A_1) ?x2692) 0.0)))
 (let (($x1430 (not (<= L_2 L_0))))
 (let (($x19523 (or (= (+ ?x673 ?x2715 A_4 (* (- 1.0) A_1) ?x1185 L_0) 0.0) (not $x15012))))
 (let (($x29260 (or $x1430 $x1974 $x14731 (<= (+ A_1 ?x2615 L_4 (* (- 1.0) A_4) (* 3.0 C)) 0.0) $x15016)))
 (let (($x28843 (or (not $x14731) (= (+ A_4 ?x1185 ?x2715) (+ A_2 ?x2615 (* 2.0 C))))))
 (let (($x2505 (= L_4 L_1)))
 (let (($x16785 (or $x2168 $x2505 $x2514 (<= (+ A_2 ?x2615 L_4 (* (- 1.0) A_4) (* 2.0 C)) 0.0) $x15016)))
 (let (($x339 (not (<= L_3 L_2))))
 (let (($x14910 (or $x339 $x371 $x1974 $x2168 (<= (+ A_3 ?x2615 L_4 (* (- 1.0) A_4) C) 0.0))))
 (let ((?x14382 (+ ?x2715 ?x1905 A_3 ?x1157)))
 (let (($x14626 (<= ?x499 ?x14382)))
 (let ((?x14387 (+ ?x2715 ?x1905 A_3 ?x673)))
 (let (($x14431 (<= S_0 ?x14387)))
 (let (($x758 (= L_3 L_1)))
 (let (($x2573 (not (= L_0 L_1))))
 (let (($x1504 (= L_3 L_2)))
 (let (($x28481 (or $x1504 $x2573 (<= (+ A_1 ?x2615 L_3 (* (- 1.0) A_3) (* 2.0 C)) 0.0) $x14626)))
 (let (($x28915 (or (<= (+ ?x2615 A_1 (* (- 1.0) S_2)) 0.0) (<= (+ C S_0 (* (- 1.0) S_2)) 0.0))))
 (let (($x15281 (or (= (+ ?x2692 ?x1905 A_3 L_0 ?x2715 (* (- 1.0) A_1)) 0.0) (not (<= ?x1249 (+ ?x2715 ?x1905 A_3 ?x2692))))))
 (let ((?x14360 (+ ?x2715 ?x1905 A_3 ?x2692)))
 (let (($x14370 (<= ?x1249 ?x14360)))
 (let (($x536 (not (= L_1 L_2))))
 (let (($x14606 (or $x536 $x758 $x2168 (<= (+ A_2 ?x2615 L_3 (* (- 1.0) A_3) C) 0.0))))
 (let ((?x29 (* (- 1.0) A_3)))
 (let ((?x161 (+ A_4 ?x29 ?x1157)))
 (let (($x13924 (<= ?x161 0.0)))
 (let (($x51 (= L_1 L_0)))
 (let (($x28988 (or $x51 $x371 $x655 $x13924 (<= (+ A_4 (* (- 1.0) A_1) ?x673) 0.0))))
 (let (($x14116 (<= A_2 (+ A_1 ?x2715 C))))
 (let (($x903 (= L_2 L_1)))
 (let ((?x2593 (+ A_4 ?x1185 ?x2715)))
 (let (($x14323 (= ?x2593 (+ A_3 ?x458 C))))
 (let (($x13896 (not $x14116)))
 (let (($x3276 (<= L_4 L_1)))
 (let (($x28441 (or $x2514 $x3276 $x14116 (not (<= A_3 (+ A_1 ?x2715 (* 2.0 C)))) $x14323)))
 (let (($x14306 (<= A_3 (+ A_1 ?x2715 (* 2.0 C)))))
 (let (($x17754 (or $x51 $x371 $x1974 $x14116 (= (+ A_4 ?x1185) (+ A_1 ?x458 (* 3.0 C))) $x14306)))
 (let (($x17800 (or (not (<= ?x1249 (+ ?x2715 (* (- 1.0) L_2) A_2 ?x1157))) (= (+ C L_2 ?x2615 B A_1 ?x1975) 0.0))))
 (let ((?x419 (* (- 1.0) L_2)))
 (let ((?x13791 (+ ?x2715 ?x419 A_2 ?x1157)))
 (let (($x14159 (<= ?x1249 ?x13791)))
 (let (($x14204 (<= A_3 (+ A_2 ?x2715 C))))
 (let (($x13574 (not $x14204)))
 (let (($x2155 (not $x1504)))
 (let (($x30001 (or $x758 $x1974 $x2155 (= (+ A_4 ?x1185) (+ A_2 ?x1905 (* 2.0 C))) $x14204)))
 (let (($x895 (>= S_1 S_0)))
 (let (($x1048 (>= S_2 S_1)))
 (let (($x132 (>= S_3 S_2)))
 (let (($x135 (>= S_4 S_3)))
 (let (($x119 (>= A_1 A_0)))
 (let (($x120 (>= A_2 A_1)))
 (let (($x121 (>= A_3 A_2)))
 (let (($x122 (>= A_4 A_3)))
 (and $x122 $x121 $x120 $x119 $x135 $x132 $x1048 $x895 (>= S_3 (+ A_2 ?x419 ?x2715)) (>= S_2 (+ A_1 ?x458 ?x2715)) (>= S_4 (+ A_3 ?x1905 ?x2715)) (or $x1504 (<= S_3 (+ A_3 ?x1905 ?x2715))) (>= S_0 (+ ?x2715 ?x458 A_1 ?x2692)) (>= S_1 (+ ?x2715 ?x458 A_1 ?x1157)) (<= (+ ?x2715 ?x458 A_1 ?x1157) (+ A_0 ?x2615)) (or (= (+ A_2 ?x419 C) ?x2058) $x903 $x1504) (or $x51 (= (+ A_1 ?x458 C) (+ A_2 ?x419)) $x903) (or (= (+ A_4 ?x1185) (+ A_3 ?x1905 C)) $x1504 $x1974) (or $x51 $x2168) (or $x51 (<= S_1 (+ A_1 ?x458 ?x2715))) (or $x1974 (<= S_4 ?x2593)) (or $x51 (<= S_0 (+ ?x2715 ?x458 A_1 ?x1157))) (or $x903 (<= S_2 (+ A_2 ?x419 ?x2715))) (or $x339 $x1504) (or $x1504 (<= S_4 (+ A_3 ?x1905 ?x2715 C))) (or $x51 (<= S_2 (+ A_1 ?x458 ?x2715 C))) (or $x51 $x1504 (= ?x2058 (+ A_1 ?x458 (* 2.0 C))) $x14116) (or (>= S_3 (+ A_1 ?x458 ?x2715 C)) $x14116) (or $x371 $x903) (or $x14204 (>= S_4 (+ A_2 ?x1905 ?x2715 C))) (or $x725 $x13574) (or $x339 $x903 (<= S_3 (+ A_2 ?x1905 ?x2715 C))) $x30001 (or $x1974 $x13574 (= ?x2593 (+ A_3 ?x1905 C))) (or $x758 $x2155 $x14196) (>= S_2 ?x13791) (<= (+ ?x2715 ?x419 A_2 ?x2692) (+ A_0 ?x2615)) (>= S_0 (+ ?x2715 ?x419 A_2 ?x673)) (>= S_1 (+ ?x2715 ?x419 A_2 ?x2692)) (<= (+ S_1 L_0 (* (- 1.0) A_1)) 0.0) (or $x903 (<= S_1 ?x13791)) (or $x903 $x14159 (<= S_0 (+ ?x2715 ?x419 A_2 ?x2692))) $x17800 (or (= L_2 L_0) $x2573 $x14241) (or $x758 $x13896 (= (+ A_3 ?x1905 ?x2715) ?x13964)) (or $x1706 $x13896) (or $x51 $x536 $x14071) (<= S_3 ?x2058) (or $x1974 $x13896 $x14196 (= ?x2593 (+ A_2 ?x458 (* 2.0 C)))) $x17754 (or $x51 (<= S_3 (+ A_1 ?x458 ?x2715 (* 2.0 C)))) $x28441 (or $x51 $x339 $x371 $x14332) (or $x3276 $x13896 $x14263 $x14323) (or $x1974 (not (<= L_4 L_3))) (or $x655 $x1504 $x13924) (<= S_4 (+ A_4 ?x1905)) (or $x339 $x903 (<= S_4 (+ A_2 ?x1905 ?x2715 (* 2.0 C)))) (or $x655 $x903 $x13924 (<= (+ A_4 ?x1975 ?x2692) 0.0)) (or $x725 $x14116 (>= S_4 (+ A_1 ?x458 ?x2715 (* 2.0 C)))) (or $x51 (<= S_4 (+ A_1 ?x458 ?x2715 (* 3.0 C)))) $x28988 (or $x725 $x13896 $x14299) $x14606 (>= S_3 ?x14382) (or $x1504 (<= S_2 ?x14382)) (or $x536 $x758 $x14071 $x14370 $x14431) (>= S_2 ?x14360) (>= S_0 (+ ?x2715 ?x1905 A_3 (* (- 4.0) C))) (<= ?x14387 (+ A_0 ?x2615)) (or (= (+ A_3 ?x1905 ?x2715) (+ A_2 ?x2615 C)) (not $x14626)) (>= S_1 ?x14387) $x15281 (<= (+ ?x1157 S_1 L_0 (* (- 1.0) A_0)) 0.0) $x28915 (<= (+ ?x2692 S_1 (* (- 1.0) S_0)) 0.0) (or $x1504 $x2168 (<= S_1 ?x14360) $x14626) $x28481 (or $x758 $x2168 $x14431 $x14626 $x14663) (>= S_4 ?x14739) (or $x1974 (<= S_3 ?x14739)) $x14910 (or $x371 $x1974 $x2168 (<= S_2 ?x14730) $x15016) (>= S_3 ?x14730) (or (= ?x2593 (+ A_3 ?x2615 C)) (not $x15016)) $x16785 (>= S_2 ?x14788) (or $x14196 (not $x15016)) (<= S_2 ?x852) (>= S_1 (+ ?x2715 ?x1185 A_4 (* (- 4.0) C))) $x28843 $x29260 (or $x371 $x1974 $x2168 $x14731 (<= S_1 ?x14788) $x15016) (<= (+ ?x1157 L_0 (* (- 1.0) A_1) S_2) 0.0) (or $x1706 (<= (+ C S_1 (* (- 1.0) S_3)) 0.0)) $x19523 (or $x1430 $x1974 $x14071 $x14332 $x15011 $x15012) $x29445 $x15852 (<= (+ ?x2692 L_0 (* (- 1.0) A_0) S_2) 0.0) (or (not $x15016) (<= (+ ?x673 A_3 (* (- 1.0) A_0)) 0.0)) (<= (+ ?x673 (* (- 1.0) S_0) S_2) 0.0) (>= S_0 (+ ?x2715 ?x1185 A_4 (* (- 5.0) C))) (<= (+ ?x2692 (* (- 1.0) S_1) S_2) 0.0) (<= (+ ?x2715 ?x1185 A_4 (* (- 4.0) C)) (+ A_0 ?x2615)) $x16739 (or $x1974 $x14196 $x14241 $x14731 $x15011) $x29149 (or $x5369 $x14263 $x14663 $x15011 $x15016) (<= S_4 (+ A_3 ?x1905 C)) (or $x725 (<= (+ C (* (- 1.0) S_4) S_2) 0.0)) (<= S_3 ?x13964) (<= (+ (* (- 1.0) S_1) ?x673 S_3) 0.0) (<= (+ ?x2692 (* (- 1.0) A_1) L_0 S_3) 0.0) (<= (+ ?x2692 S_3 (* (- 1.0) S_2)) 0.0) (<= (+ ?x673 (* (- 1.0) A_0) L_0 S_3) 0.0) (<= (+ (* (- 1.0) S_0) (* (- 4.0) C) S_3) 0.0) (<= (+ ?x673 S_4 (* (- 1.0) S_2)) 0.0) $x29762 $x14141 (<= S_4 (+ A_2 ?x458 (* 2.0 C))) (<= (+ ?x2692 S_4 (* (- 1.0) S_3)) 0.0) (<= (+ ?x673 L_0 (* (- 1.0) A_1) S_4) 0.0) (<= (+ (* (- 1.0) S_0) (* (- 5.0) C) S_4) 0.0) $x16757 (or $x655 (<= ?x161 B)) (or $x2514 (<= ?x14195 B)) (<= (+ (* (- 1.0) S_1) (* (- 4.0) C) S_4) 0.0) (<= (+ (* (- 4.0) C) (* (- 1.0) A_0) L_0 S_4) 0.0) $x2109 $x2404 $x34 (<= (+ S_0 L_0 (* (- 1.0) A_0)) 0.0)))))))))))))))))))))))))))))))))))))))))))))))))))))))))))))))))))))))))))))))))))))))))))))))))))))))))
(check-sat)
